(set-info :smt-lib-version 2.6)
(set-logic QF_S)
(set-info :source |
Generated by: Murphy Berzish, Mitja Kulczynski, Federico Mora, Florin Manea, Joel Day, Dirk Nowotka, Vijay Ganesh, Zhengyang Lu
Generated on: 2020-10-01
Description: Translated from a collection of real-world regex queries, AutomataArk, collected by Loris D’Antoni and Fang Wang: https://github.com/lorisdanto/automatark
Application: Evaluate solvers on real-world regex queries
Target solver: Z3str3RE, CVC4, OSTRICH, Z3seq, Z3str3, Z3-Trau
Publications: Berzish, M., Kulczynski, M., Mora, F., Manea, F., Day, J. D., Nowotka, D., & Ganesh, V. (2021, July). An SMT solver for regular expressions and linear arithmetic over string length. In CAV 2021.
|)
(set-info :license "https://creativecommons.org/licenses/by/4.0/")
(set-info :category "industrial")
(set-info :status unsat)

(declare-const X String)
(assert (str.in_re X (re.++ (re.union (str.to_re "http") (str.to_re "https") (str.to_re "ftp") (str.to_re "ftps")) (str.to_re "://") (re.+ (re.union (re.range "a" "z") (re.range "A" "Z") (re.range "0" "9") (str.to_re "-"))) (re.* (re.++ (str.to_re ".") (re.+ (re.union (re.range "a" "z") (re.range "A" "Z") (re.range "0" "9") (str.to_re "-"))))) (re.opt (re.++ (str.to_re ":") (re.* (re.range "0" "9")))) (re.* (re.++ (str.to_re "/") (re.* (re.union (re.range "a" "z") (re.range "A" "Z") (re.range "0" "9") (str.to_re "_") (str.to_re "-"))))) (re.opt (re.++ (re.opt (str.to_re ".")) ((_ re.loop 1 10) (re.union (re.range "a" "z") (re.range "A" "Z") (re.range "0" "9") (str.to_re "#"))))) (re.opt (re.++ (str.to_re "?") (re.* (re.union (re.range "a" "z") (re.range "A" "Z") (re.range "0" "9") (str.to_re "-") (str.to_re ".") (str.to_re "_") (str.to_re ",") (str.to_re "'") (str.to_re "+") (str.to_re "&") (str.to_re "%") (str.to_re "$") (str.to_re "#") (str.to_re "=") (str.to_re "~"))))) (str.to_re "\u{a}.") ((_ re.loop 2 3) (re.union (re.range "a" "z") (re.range "A" "Z"))))))
(assert (not (str.in_re X (re.++ (re.* re.allchar) (re.union (str.to_re "$") (str.to_re "S") (str.to_re "s")) (str.to_re "pecia") (re.union (str.to_re "l") (str.to_re "1")) (re.comp (re.union (re.range "0" "9") (re.range "A" "Z") (re.range "a" "z") (str.to_re "_"))) (re.union (str.to_re "O") (str.to_re "o") (str.to_re "0")) (str.to_re "ffer") (re.* re.allchar) (str.to_re "\u{a}")))))
(assert (str.in_re X (re.++ (str.to_re "Porta") (re.+ (re.union (str.to_re " ") (str.to_re "\u{9}") (str.to_re "\u{a}") (str.to_re "\u{c}") (str.to_re "\u{d}"))) (str.to_re "SSKC") (re.+ (re.union (str.to_re " ") (str.to_re "\u{9}") (str.to_re "\u{a}") (str.to_re "\u{c}") (str.to_re "\u{d}"))) (str.to_re ".cfgmPOPrtCUSTOMPalToolbarUser-Agent:\u{a}"))))
(assert (str.in_re X (re.++ (str.to_re "[") (re.+ re.allchar) (str.to_re "]") (re.+ re.allchar) (str.to_re "[") (re.opt (str.to_re "n")) (str.to_re "varchar]") (re.+ re.allchar) (str.to_re "NULL,\u{a}"))))
(assert (not (str.in_re X (re.++ (str.to_re "ad.searchsquire.com") (re.+ (re.union (str.to_re " ") (str.to_re "\u{9}") (str.to_re "\u{a}") (str.to_re "\u{c}") (str.to_re "\u{d}"))) (str.to_re "ocllceclbhs/gth\u{a}")))))
(check-sat)

(exit)
